(set-info :smt-lib-version 2.6)
(set-info :category "crafted")
(set-logic QF_FFA)
(define-sort FF0 () (_ FiniteField 52435875175126190479447740508185965837690552500527637822603658699938581184513))
(declare-fun return_n9_alt () FF0)
(declare-fun is_zero_n83_alt () FF0)
(declare-fun is_zero_n41_alt () FF0)
(declare-fun mul_n69_alt () FF0)
(declare-fun mul_n72_alt () FF0)
(declare-fun mul_n78_alt () FF0)
(declare-fun mul_n81_alt () FF0)
(declare-fun g_n11_alt () FF0)
(declare-fun mul_n17_alt () FF0)
(declare-fun mul_n33_alt () FF0)
(declare-fun mul_n52_alt () FF0)
(declare-fun mul_n77_alt () FF0)
(declare-fun is_zero_n80_alt () FF0)
(declare-fun is_zero_inv_n84_alt () FF0)
(declare-fun is_zero_n27_alt () FF0)
(declare-fun mul_n46_alt () FF0)
(declare-fun mul_n75_alt () FF0)
(declare-fun is_zero_n32_alt () FF0)
(declare-fun mul_n21_alt () FF0)
(declare-fun mul_n45_alt () FF0)
(declare-fun mul_n64_alt () FF0)
(declare-fun is_zero_inv_n82_alt () FF0)
(declare-fun k_n3_alt () FF0)
(declare-fun mul_n70_alt () FF0)
(declare-fun f_n2_alt () FF0)
(declare-fun mul_n67_alt () FF0)
(declare-fun mul_n61_alt () FF0)
(declare-fun mul_n71_alt () FF0)
(declare-fun mul_n35_alt () FF0)
(declare-fun b_n0_alt () FF0)
(declare-fun is_zero_inv_n79_alt () FF0)
(declare-fun is_zero_n44_alt () FF0)
(declare-fun mul_n16_alt () FF0)
(declare-fun mul_n39_alt () FF0)
(declare-fun mul_n76_alt () FF0)
(declare-fun mul_n74_alt () FF0)
(declare-fun mul_n15_alt () FF0)
(declare-fun mul_n42_alt () FF0)
(declare-fun mul_n73_alt () FF0)
(declare-fun c_n8_alt () FF0)
(declare-fun is_zero_n51_alt () FF0)
(declare-fun mul_n63_alt () FF0)
(declare-fun mul_n68_alt () FF0)
(declare-fun mul_n58_alt () FF0)
(declare-fun is_zero_n66_alt () FF0)
(declare-fun mul_n60_alt () FF0)
(declare-fun mul_n30_alt () FF0)
(declare-fun mul_n36_alt () FF0)
(declare-fun i_n7_alt () FF0)
(declare-fun is_zero_inv_n65_alt () FF0)
(declare-fun mul_n38_alt () FF0)
(declare-fun mul_n22_alt () FF0)
(declare-fun j_n5_alt () FF0)
(declare-fun mul_n62_alt () FF0)
(declare-fun mul_n56_alt () FF0)
(declare-fun mul_n59_alt () FF0)
(declare-fun mul_n25_alt () FF0)
(declare-fun mul_n57_alt () FF0)
(declare-fun d_n6_alt () FF0)
(declare-fun mul_n55_alt () FF0)
(declare-fun is_zero_n54_alt () FF0)
(declare-fun l_n12_alt () FF0)
(declare-fun mul_n34_alt () FF0)
(declare-fun mul_n49_alt () FF0)
(declare-fun is_zero_inv_n53_alt () FF0)
(declare-fun mul_n23_alt () FF0)
(declare-fun e_n4_alt () FF0)
(declare-fun is_zero_inv_n50_alt () FF0)
(declare-fun is_zero_n48_alt () FF0)
(declare-fun mul_n24_alt () FF0)
(declare-fun is_zero_inv_n47_alt () FF0)
(declare-fun is_zero_n19_alt () FF0)
(declare-fun a_n1_alt () FF0)
(declare-fun mul_n20_alt () FF0)
(declare-fun h_n10_alt () FF0)
(declare-fun is_zero_n29_alt () FF0)
(declare-fun is_zero_inv_n43_alt () FF0)
(declare-fun mul_n14_alt () FF0)
(declare-fun is_zero_inv_n40_alt () FF0)
(declare-fun mul_n37_alt () FF0)
(declare-fun is_zero_inv_n31_alt () FF0)
(declare-fun is_zero_inv_n28_alt () FF0)
(declare-fun is_zero_inv_n26_alt () FF0)
(declare-fun is_zero_inv_n18_alt () FF0)
(declare-fun mul_n13_alt () FF0)
(declare-fun return_n9 () FF0)
(declare-fun is_zero_n83 () FF0)
(declare-fun is_zero_n41 () FF0)
(declare-fun mul_n69 () FF0)
(declare-fun mul_n72 () FF0)
(declare-fun mul_n78 () FF0)
(declare-fun mul_n81 () FF0)
(declare-fun g_n11 () FF0)
(declare-fun mul_n17 () FF0)
(declare-fun mul_n33 () FF0)
(declare-fun mul_n52 () FF0)
(declare-fun mul_n77 () FF0)
(declare-fun is_zero_n80 () FF0)
(declare-fun is_zero_inv_n84 () FF0)
(declare-fun is_zero_n27 () FF0)
(declare-fun mul_n46 () FF0)
(declare-fun mul_n75 () FF0)
(declare-fun is_zero_n32 () FF0)
(declare-fun mul_n21 () FF0)
(declare-fun mul_n45 () FF0)
(declare-fun mul_n64 () FF0)
(declare-fun is_zero_inv_n82 () FF0)
(declare-fun k_n3 () FF0)
(declare-fun mul_n70 () FF0)
(declare-fun f_n2 () FF0)
(declare-fun mul_n67 () FF0)
(declare-fun mul_n61 () FF0)
(declare-fun mul_n71 () FF0)
(declare-fun mul_n35 () FF0)
(declare-fun b_n0 () FF0)
(declare-fun is_zero_inv_n79 () FF0)
(declare-fun is_zero_n44 () FF0)
(declare-fun mul_n16 () FF0)
(declare-fun mul_n39 () FF0)
(declare-fun mul_n76 () FF0)
(declare-fun mul_n74 () FF0)
(declare-fun mul_n15 () FF0)
(declare-fun mul_n42 () FF0)
(declare-fun mul_n73 () FF0)
(declare-fun c_n8 () FF0)
(declare-fun is_zero_n51 () FF0)
(declare-fun mul_n63 () FF0)
(declare-fun mul_n68 () FF0)
(declare-fun mul_n58 () FF0)
(declare-fun is_zero_n66 () FF0)
(declare-fun mul_n60 () FF0)
(declare-fun mul_n30 () FF0)
(declare-fun mul_n36 () FF0)
(declare-fun i_n7 () FF0)
(declare-fun is_zero_inv_n65 () FF0)
(declare-fun mul_n38 () FF0)
(declare-fun mul_n22 () FF0)
(declare-fun j_n5 () FF0)
(declare-fun mul_n62 () FF0)
(declare-fun mul_n56 () FF0)
(declare-fun mul_n59 () FF0)
(declare-fun mul_n25 () FF0)
(declare-fun mul_n57 () FF0)
(declare-fun d_n6 () FF0)
(declare-fun mul_n55 () FF0)
(declare-fun is_zero_n54 () FF0)
(declare-fun l_n12 () FF0)
(declare-fun mul_n34 () FF0)
(declare-fun mul_n49 () FF0)
(declare-fun is_zero_inv_n53 () FF0)
(declare-fun mul_n23 () FF0)
(declare-fun e_n4 () FF0)
(declare-fun is_zero_inv_n50 () FF0)
(declare-fun is_zero_n48 () FF0)
(declare-fun mul_n24 () FF0)
(declare-fun is_zero_inv_n47 () FF0)
(declare-fun is_zero_n19 () FF0)
(declare-fun a_n1 () FF0)
(declare-fun mul_n20 () FF0)
(declare-fun h_n10 () FF0)
(declare-fun is_zero_n29 () FF0)
(declare-fun is_zero_inv_n43 () FF0)
(declare-fun mul_n14 () FF0)
(declare-fun is_zero_inv_n40 () FF0)
(declare-fun mul_n37 () FF0)
(declare-fun is_zero_inv_n31 () FF0)
(declare-fun is_zero_inv_n28 () FF0)
(declare-fun is_zero_inv_n26 () FF0)
(declare-fun is_zero_inv_n18 () FF0)
(declare-fun mul_n13 () FF0)
(assert 
  (let ((let0 (as ff1 FF0)))
  (let ((let1 (as ff52435875175126190479447740508185965837690552500527637822603658699938581184512 FF0)))
  (let ((let2 return_n9_alt))
  (let ((let3 (ff.mul let2 let1)))
  (let ((let4 (ff.add let3 let0)))
  (let ((let5 (as ff4 FF0)))
  (let ((let6 is_zero_n83_alt))
  (let ((let7 is_zero_n41_alt))
  (let ((let8 (ff.mul let7 let1)))
  (let ((let9 mul_n69_alt))
  (let ((let10 (ff.mul let9 let1)))
  (let ((let11 mul_n72_alt))
  (let ((let12 mul_n78_alt))
  (let ((let13 mul_n81_alt))
  (let ((let14 (ff.mul let13 let1)))
  (let ((let15 g_n11_alt))
  (let ((let16 mul_n17_alt))
  (let ((let17 mul_n33_alt))
  (let ((let18 (ff.mul let17 let1)))
  (let ((let19 mul_n52_alt))
  (let ((let20 (ff.mul let19 let1)))
  (let ((let21 mul_n77_alt))
  (let ((let22 (ff.mul let21 let1)))
  (let ((let23 is_zero_n80_alt))
  (let ((let24 (ff.add let23 let22 let20 let18 let16 let15 let14 let12 let11 let10 let8 let6 let5)))
  (let ((let25 is_zero_inv_n84_alt))
  (let ((let26 (ff.mul let25 let24)))
  (let ((let27 (= let26 let4)))
  (let ((let28 (as ff0 FF0)))
  (let ((let29 (as ff2 FF0)))
  (let ((let30 is_zero_n27_alt))
  (let ((let31 mul_n46_alt))
  (let ((let32 mul_n75_alt))
  (let ((let33 (ff.mul let32 let1)))
  (let ((let34 is_zero_n32_alt))
  (let ((let35 mul_n21_alt))
  (let ((let36 (ff.mul let35 let1)))
  (let ((let37 mul_n45_alt))
  (let ((let38 mul_n64_alt))
  (let ((let39 (ff.add let38 let37 let36 let34 let33 let31 let30 let29)))
  (let ((let40 (ff.mul let6 let39)))
  (let ((let41 (= let40 let28)))
  (let ((let42 (ff.mul let6 let1)))
  (let ((let43 (ff.add let42 let0)))
  (let ((let44 is_zero_inv_n82_alt))
  (let ((let45 (ff.mul let44 let39)))
  (let ((let46 (= let45 let43)))
  (let ((let47 (ff.add let18 let0)))
  (let ((let48 (ff.mul let15 let29)))
  (let ((let49 (ff.mul let48 let47)))
  (let ((let50 (= let49 let13)))
  (let ((let51 (as ff3 FF0)))
  (let ((let52 k_n3_alt))
  (let ((let53 (ff.mul let52 let1)))
  (let ((let54 mul_n70_alt))
  (let ((let55 (ff.mul let54 let1)))
  (let ((let56 f_n2_alt))
  (let ((let57 (ff.mul let56 let1)))
  (let ((let58 (ff.mul let30 let1)))
  (let ((let59 (ff.mul let31 let1)))
  (let ((let60 mul_n67_alt))
  (let ((let61 (ff.mul let60 let1)))
  (let ((let62 mul_n61_alt))
  (let ((let63 mul_n71_alt))
  (let ((let64 mul_n35_alt))
  (let ((let65 (ff.mul let37 let1)))
  (let ((let66 b_n0_alt))
  (let ((let67 (ff.add let66 let65 let64 let63 let62 let61 let59 let58 let57 let55 let53 let51)))
  (let ((let68 (ff.mul let23 let67)))
  (let ((let69 (= let68 let28)))
  (let ((let70 (ff.mul let23 let1)))
  (let ((let71 (ff.add let70 let0)))
  (let ((let72 is_zero_inv_n79_alt))
  (let ((let73 (ff.mul let72 let67)))
  (let ((let74 (= let73 let71)))
  (let ((let75 is_zero_n44_alt))
  (let ((let76 mul_n16_alt))
  (let ((let77 (ff.add let76 let52)))
  (let ((let78 (ff.mul let77 let75)))
  (let ((let79 (= let78 let12)))
  (let ((let80 mul_n39_alt))
  (let ((let81 (ff.mul let80 let1)))
  (let ((let82 (ff.add let81 let0)))
  (let ((let83 mul_n76_alt))
  (let ((let84 (ff.mul let83 let82)))
  (let ((let85 (= let84 let21)))
  (let ((let86 mul_n74_alt))
  (let ((let87 (ff.mul let86 let1)))
  (let ((let88 (ff.add let87 let0)))
  (let ((let89 (ff.add let33 let0)))
  (let ((let90 (ff.mul let89 let88)))
  (let ((let91 (= let90 let83)))
  (let ((let92 (ff.add let58 let0)))
  (let ((let93 mul_n15_alt))
  (let ((let94 (ff.mul let93 let1)))
  (let ((let95 mul_n42_alt))
  (let ((let96 (ff.add let95 let94 let0)))
  (let ((let97 (ff.mul let96 let92)))
  (let ((let98 (= let97 let32)))
  (let ((let99 mul_n73_alt))
  (let ((let100 (ff.mul let99 let92)))
  (let ((let101 (= let100 let86)))
  (let ((let102 c_n8_alt))
  (let ((let103 (ff.mul let102 let1)))
  (let ((let104 (ff.add let103 let0)))
  (let ((let105 is_zero_n51_alt))
  (let ((let106 (ff.mul let105 let104)))
  (let ((let107 (= let106 let99)))
  (let ((let108 (ff.mul let16 let1)))
  (let ((let109 (ff.add let66 let65 let63 let19 let108 let59 let58 let55 let0)))
  (let ((let110 (ff.mul let109 let102)))
  (let ((let111 (= let110 let11)))
  (let ((let112 (ff.add let30 let37 let20 let16 let54 let31 let1)))
  (let ((let113 (as ff52435875175126190479447740508185965837690552500527637822603658699938581184511 FF0)))
  (let ((let114 (ff.mul let66 let113)))
  (let ((let115 (ff.add let114 let29)))
  (let ((let116 (ff.mul let115 let112)))
  (let ((let117 (= let116 let63)))
  (let ((let118 (ff.add let19 let108 let0)))
  (let ((let119 (ff.mul let30 let113)))
  (let ((let120 (ff.mul let31 let113)))
  (let ((let121 (ff.mul let37 let113)))
  (let ((let122 (ff.add let121 let120 let119 let29)))
  (let ((let123 (ff.mul let122 let118)))
  (let ((let124 (= let123 let54)))
  (let ((let125 (ff.mul let95 let1)))
  (let ((let126 mul_n63_alt))
  (let ((let127 (ff.mul let126 let1)))
  (let ((let128 (ff.add let127 let125 let93)))
  (let ((let129 mul_n68_alt))
  (let ((let130 (ff.mul let129 let128)))
  (let ((let131 (= let130 let9)))
  (let ((let132 mul_n58_alt))
  (let ((let133 (ff.mul let132 let1)))
  (let ((let134 (ff.add let133 let0)))
  (let ((let135 (ff.mul let60 let134)))
  (let ((let136 (= let135 let129)))
  (let ((let137 (ff.mul let64 let1)))
  (let ((let138 (ff.add let137 let56 let52)))
  (let ((let139 is_zero_n66_alt))
  (let ((let140 (ff.mul let139 let138)))
  (let ((let141 (= let140 let60)))
  (let ((let142 mul_n60_alt))
  (let ((let143 mul_n30_alt))
  (let ((let144 mul_n36_alt))
  (let ((let145 (ff.mul let144 let1)))
  (let ((let146 i_n7_alt))
  (let ((let147 (ff.mul let146 let1)))
  (let ((let148 (ff.mul let38 let1)))
  (let ((let149 (ff.add let66 let148 let53 let147 let145 let143 let57 let142 let64 let51)))
  (let ((let150 (ff.mul let139 let149)))
  (let ((let151 (= let150 let28)))
  (let ((let152 (ff.mul let139 let1)))
  (let ((let153 (ff.add let152 let0)))
  (let ((let154 is_zero_inv_n65_alt))
  (let ((let155 (ff.mul let154 let149)))
  (let ((let156 (= let155 let153)))
  (let ((let157 mul_n38_alt))
  (let ((let158 (ff.mul let157 let1)))
  (let ((let159 (ff.add let158 let0)))
  (let ((let160 mul_n22_alt))
  (let ((let161 j_n5_alt))
  (let ((let162 (ff.add let161 let160 let57)))
  (let ((let163 (ff.mul let162 let159)))
  (let ((let164 (= let163 let38)))
  (let ((let165 (ff.add let93 let56 let125 let1)))
  (let ((let166 mul_n62_alt))
  (let ((let167 mul_n56_alt))
  (let ((let168 (ff.add let167 let166)))
  (let ((let169 (ff.mul let168 let165)))
  (let ((let170 (= let169 let126)))
  (let ((let171 (ff.mul let143 let1)))
  (let ((let172 (ff.mul let167 let1)))
  (let ((let173 (ff.mul let66 let1)))
  (let ((let174 (ff.add let137 let173 let56 let172 let144 let171 let52)))
  (let ((let175 (ff.add let20 let62 let16)))
  (let ((let176 (ff.mul let175 let174)))
  (let ((let177 (= let176 let166)))
  (let ((let178 (ff.add let19 let108 let132)))
  (let ((let179 (ff.mul let142 let1)))
  (let ((let180 (ff.add let179 let0)))
  (let ((let181 (ff.mul let180 let178)))
  (let ((let182 (= let181 let62)))
  (let ((let183 mul_n59_alt))
  (let ((let184 (ff.mul let183 let134)))
  (let ((let185 (= let184 let142)))
  (let ((let186 mul_n25_alt))
  (let ((let187 (ff.mul let186 let1)))
  (let ((let188 (ff.add let187 let0)))
  (let ((let189 (ff.mul let15 let1)))
  (let ((let190 (ff.add let189 let0)))
  (let ((let191 (ff.mul let190 let188)))
  (let ((let192 (= let191 let183)))
  (let ((let193 mul_n57_alt))
  (let ((let194 (ff.mul let193 let186)))
  (let ((let195 (= let194 let132)))
  (let ((let196 (ff.mul let161 let1)))
  (let ((let197 (ff.add let196 let0)))
  (let ((let198 (ff.mul let197 let47)))
  (let ((let199 (= let198 let193)))
  (let ((let200 d_n6_alt))
  (let ((let201 (ff.mul let200 let1)))
  (let ((let202 (ff.add let201 let0)))
  (let ((let203 mul_n55_alt))
  (let ((let204 (ff.mul let203 let202)))
  (let ((let205 (= let204 let167)))
  (let ((let206 (ff.mul let105 let1)))
  (let ((let207 (ff.add let206 let0)))
  (let ((let208 is_zero_n54_alt))
  (let ((let209 (ff.mul let208 let207)))
  (let ((let210 (= let209 let203)))
  (let ((let211 l_n12_alt))
  (let ((let212 (ff.mul let211 let1)))
  (let ((let213 mul_n34_alt))
  (let ((let214 (ff.mul let213 let1)))
  (let ((let215 mul_n49_alt))
  (let ((let216 (ff.add let19 let108 let215 let102 let161 let214 let212 let7 let29)))
  (let ((let217 (ff.mul let208 let216)))
  (let ((let218 (= let217 let28)))
  (let ((let219 (ff.mul let208 let1)))
  (let ((let220 (ff.add let219 let0)))
  (let ((let221 is_zero_inv_n53_alt))
  (let ((let222 (ff.mul let221 let216)))
  (let ((let223 (= let222 let220)))
  (let ((let224 (ff.add let16 let81)))
  (let ((let225 mul_n23_alt))
  (let ((let226 (ff.mul let225 let224)))
  (let ((let227 (= let226 let19)))
  (let ((let228 (ff.mul let215 let1)))
  (let ((let229 e_n4_alt))
  (let ((let230 (ff.add let34 let37 let212 let229 let228 let31 let30 let29)))
  (let ((let231 (ff.mul let105 let230)))
  (let ((let232 (= let231 let28)))
  (let ((let233 is_zero_inv_n50_alt))
  (let ((let234 (ff.mul let233 let230)))
  (let ((let235 (= let234 let207)))
  (let ((let236 is_zero_n48_alt))
  (let ((let237 (ff.mul let200 let236)))
  (let ((let238 (= let237 let215)))
  (let ((let239 (ff.mul let75 let1)))
  (let ((let240 mul_n24_alt))
  (let ((let241 (ff.mul let240 let1)))
  (let ((let242 (ff.add let241 let239 let59 let51)))
  (let ((let243 (ff.mul let236 let242)))
  (let ((let244 (= let243 let28)))
  (let ((let245 (ff.mul let236 let1)))
  (let ((let246 (ff.add let245 let0)))
  (let ((let247 is_zero_inv_n47_alt))
  (let ((let248 (ff.mul let247 let242)))
  (let ((let249 (= let248 let246)))
  (let ((let250 (ff.add let229 let65 let58)))
  (let ((let251 (ff.add let66 let143)))
  (let ((let252 (ff.mul let251 let250)))
  (let ((let253 (= let252 let31)))
  (let ((let254 (ff.add let239 let58 let0)))
  (let ((let255 (ff.mul let146 let254)))
  (let ((let256 (= let255 let37)))
  (let ((let257 is_zero_n19_alt))
  (let ((let258 a_n1_alt))
  (let ((let259 (ff.mul let258 let1)))
  (let ((let260 mul_n20_alt))
  (let ((let261 h_n10_alt))
  (let ((let262 is_zero_n29_alt))
  (let ((let263 (ff.mul let262 let1)))
  (let ((let264 (ff.add let76 let263 let261 let147 let260 let259 let16 let257 let36 let52 let51)))
  (let ((let265 (ff.mul let75 let264)))
  (let ((let266 (= let265 let28)))
  (let ((let267 (ff.add let239 let0)))
  (let ((let268 is_zero_inv_n43_alt))
  (let ((let269 (ff.mul let268 let264)))
  (let ((let270 (= let269 let267)))
  (let ((let271 (ff.add let259 let93)))
  (let ((let272 (ff.add let8 let0)))
  (let ((let273 (ff.mul let272 let271)))
  (let ((let274 (= let273 let95)))
  (let ((let275 (ff.mul let52 let29)))
  (let ((let276 mul_n14_alt))
  (let ((let277 (ff.add let173 let137 let76 let81 let144 let258 let171 let276 let18 let196 let56 let213 let211 let275 let29)))
  (let ((let278 (ff.mul let7 let277)))
  (let ((let279 (= let278 let28)))
  (let ((let280 is_zero_inv_n40_alt))
  (let ((let281 (ff.mul let280 let277)))
  (let ((let282 (= let281 let272)))
  (let ((let283 (ff.mul let157 let257)))
  (let ((let284 (= let283 let80)))
  (let ((let285 mul_n37_alt))
  (let ((let286 (ff.mul let285 let262)))
  (let ((let287 (= let286 let157)))
  (let ((let288 (ff.mul let211 let146)))
  (let ((let289 (= let288 let285)))
  (let ((let290 (ff.mul let64 let29)))
  (let ((let291 (ff.mul let56 let113)))
  (let ((let292 (ff.mul let52 let113)))
  (let ((let293 (ff.add let292 let291 let290 let29)))
  (let ((let294 (ff.mul let293 let251)))
  (let ((let295 (= let294 let144)))
  (let ((let296 (ff.mul let56 let29)))
  (let ((let297 (ff.mul let296 let52)))
  (let ((let298 (= let297 let64)))
  (let ((let299 (ff.mul let211 let113)))
  (let ((let300 (ff.add let299 let29)))
  (let ((let301 (ff.mul let300 let161)))
  (let ((let302 (= let301 let213)))
  (let ((let303 (ff.mul let34 let1)))
  (let ((let304 (ff.add let303 let0)))
  (let ((let305 (ff.mul let304 let35)))
  (let ((let306 (= let305 let17)))
  (let ((let307 (as ff5 FF0)))
  (let ((let308 (ff.mul let160 let1)))
  (let ((let309 (ff.mul let229 let1)))
  (let ((let310 (ff.mul let225 let1)))
  (let ((let311 (ff.add let173 let310 let309 let16 let171 let259 let240 let196 let56 let308 let307)))
  (let ((let312 (ff.mul let34 let311)))
  (let ((let313 (= let312 let28)))
  (let ((let314 is_zero_inv_n31_alt))
  (let ((let315 (ff.mul let314 let311)))
  (let ((let316 (= let315 let304)))
  (let ((let317 (ff.add let173 let200)))
  (let ((let318 (ff.add let263 let0)))
  (let ((let319 (ff.mul let318 let317)))
  (let ((let320 (= let319 let143)))
  (let ((let321 (ff.mul let257 let1)))
  (let ((let322 (ff.mul let240 let113)))
  (let ((let323 (ff.add let322 let76 let30 let321 let52 let51)))
  (let ((let324 (ff.mul let262 let323)))
  (let ((let325 (= let324 let28)))
  (let ((let326 is_zero_inv_n28_alt))
  (let ((let327 (ff.mul let326 let323)))
  (let ((let328 (= let327 let318)))
  (let ((let329 (ff.mul let276 let1)))
  (let ((let330 (ff.add let173 let57 let187 let329 let5)))
  (let ((let331 (ff.mul let30 let330)))
  (let ((let332 (= let331 let28)))
  (let ((let333 is_zero_inv_n26_alt))
  (let ((let334 (ff.mul let333 let330)))
  (let ((let335 (= let334 let92)))
  (let ((let336 (ff.add let147 let0)))
  (let ((let337 (ff.mul let211 let336)))
  (let ((let338 (= let337 let186)))
  (let ((let339 (ff.mul let261 let1)))
  (let ((let340 (ff.add let339 let0)))
  (let ((let341 (ff.mul let102 let340)))
  (let ((let342 (= let341 let240)))
  (let ((let343 (ff.add let260 let16 let257 let1)))
  (let ((let344 (ff.mul let343 let162)))
  (let ((let345 (= let344 let225)))
  (let ((let346 (ff.mul let161 let113)))
  (let ((let347 (ff.add let346 let29)))
  (let ((let348 (ff.mul let347 let56)))
  (let ((let349 (= let348 let160)))
  (let ((let350 (ff.mul let260 let1)))
  (let ((let351 (ff.add let350 let108 let321 let29)))
  (let ((let352 (ff.add let94 let0)))
  (let ((let353 (ff.mul let352 let351)))
  (let ((let354 (= let353 let35)))
  (let ((let355 (ff.add let108 let0)))
  (let ((let356 (ff.mul let257 let113)))
  (let ((let357 (ff.add let356 let29)))
  (let ((let358 (ff.mul let357 let355)))
  (let ((let359 (= let358 let260)))
  (let ((let360 (ff.add let102 let66 let211 let229 let259 let200 let15 let0)))
  (let ((let361 (ff.mul let257 let360)))
  (let ((let362 (= let361 let28)))
  (let ((let363 (ff.add let321 let0)))
  (let ((let364 is_zero_inv_n18_alt))
  (let ((let365 (ff.mul let364 let360)))
  (let ((let366 (= let365 let363)))
  (let ((let367 (ff.add let259 let0)))
  (let ((let368 (ff.mul let146 let367)))
  (let ((let369 (= let368 let16)))
  (let ((let370 (ff.add let53 let94 let0)))
  (let ((let371 (ff.mul let197 let370)))
  (let ((let372 (= let371 let76)))
  (let ((let373 (ff.mul let276 let340)))
  (let ((let374 (= let373 let93)))
  (let ((let375 mul_n13_alt))
  (let ((let376 (ff.mul let375 let161)))
  (let ((let377 (= let376 let276)))
  (let ((let378 (ff.mul let52 let200)))
  (let ((let379 (= let378 let375)))
  (let ((let380 (and let379 let377 let374 let372 let369 let366 let362 let359 let354 let349 let345 let342 let338 let335 let332 let328 let325 let320 let316 let313 let306 let302 let298 let295 let289 let287 let284 let282 let279 let274 let270 let266 let256 let253 let249 let244 let238 let235 let232 let227 let223 let218 let210 let205 let199 let195 let192 let185 let182 let177 let170 let164 let156 let151 let141 let136 let131 let124 let117 let111 let107 let101 let98 let91 let85 let79 let74 let69 let50 let46 let41 let27)))
  (let ((let381 return_n9))
  (let ((let382 (ff.mul let381 let1)))
  (let ((let383 (ff.add let382 let0)))
  (let ((let384 is_zero_n83))
  (let ((let385 is_zero_n41))
  (let ((let386 (ff.mul let385 let1)))
  (let ((let387 mul_n69))
  (let ((let388 (ff.mul let387 let1)))
  (let ((let389 mul_n72))
  (let ((let390 mul_n78))
  (let ((let391 mul_n81))
  (let ((let392 (ff.mul let391 let1)))
  (let ((let393 g_n11))
  (let ((let394 mul_n17))
  (let ((let395 mul_n33))
  (let ((let396 (ff.mul let395 let1)))
  (let ((let397 mul_n52))
  (let ((let398 (ff.mul let397 let1)))
  (let ((let399 mul_n77))
  (let ((let400 (ff.mul let399 let1)))
  (let ((let401 is_zero_n80))
  (let ((let402 (ff.add let401 let400 let398 let396 let394 let393 let392 let390 let389 let388 let386 let384 let5)))
  (let ((let403 is_zero_inv_n84))
  (let ((let404 (ff.mul let403 let402)))
  (let ((let405 (= let404 let383)))
  (let ((let406 is_zero_n27))
  (let ((let407 mul_n46))
  (let ((let408 mul_n75))
  (let ((let409 (ff.mul let408 let1)))
  (let ((let410 is_zero_n32))
  (let ((let411 mul_n21))
  (let ((let412 (ff.mul let411 let1)))
  (let ((let413 mul_n45))
  (let ((let414 mul_n64))
  (let ((let415 (ff.add let414 let413 let412 let410 let409 let407 let406 let29)))
  (let ((let416 (ff.mul let384 let415)))
  (let ((let417 (= let416 let28)))
  (let ((let418 (ff.mul let384 let1)))
  (let ((let419 (ff.add let418 let0)))
  (let ((let420 is_zero_inv_n82))
  (let ((let421 (ff.mul let420 let415)))
  (let ((let422 (= let421 let419)))
  (let ((let423 (ff.add let396 let0)))
  (let ((let424 (ff.mul let393 let29)))
  (let ((let425 (ff.mul let424 let423)))
  (let ((let426 (= let425 let391)))
  (let ((let427 k_n3))
  (let ((let428 (ff.mul let427 let1)))
  (let ((let429 mul_n70))
  (let ((let430 (ff.mul let429 let1)))
  (let ((let431 f_n2))
  (let ((let432 (ff.mul let431 let1)))
  (let ((let433 (ff.mul let406 let1)))
  (let ((let434 (ff.mul let407 let1)))
  (let ((let435 mul_n67))
  (let ((let436 (ff.mul let435 let1)))
  (let ((let437 mul_n61))
  (let ((let438 mul_n71))
  (let ((let439 mul_n35))
  (let ((let440 (ff.mul let413 let1)))
  (let ((let441 b_n0))
  (let ((let442 (ff.add let441 let440 let439 let438 let437 let436 let434 let433 let432 let430 let428 let51)))
  (let ((let443 (ff.mul let401 let442)))
  (let ((let444 (= let443 let28)))
  (let ((let445 (ff.mul let401 let1)))
  (let ((let446 (ff.add let445 let0)))
  (let ((let447 is_zero_inv_n79))
  (let ((let448 (ff.mul let447 let442)))
  (let ((let449 (= let448 let446)))
  (let ((let450 is_zero_n44))
  (let ((let451 mul_n16))
  (let ((let452 (ff.add let451 let427)))
  (let ((let453 (ff.mul let452 let450)))
  (let ((let454 (= let453 let390)))
  (let ((let455 mul_n39))
  (let ((let456 (ff.mul let455 let1)))
  (let ((let457 (ff.add let456 let0)))
  (let ((let458 mul_n76))
  (let ((let459 (ff.mul let458 let457)))
  (let ((let460 (= let459 let399)))
  (let ((let461 mul_n74))
  (let ((let462 (ff.mul let461 let1)))
  (let ((let463 (ff.add let462 let0)))
  (let ((let464 (ff.add let409 let0)))
  (let ((let465 (ff.mul let464 let463)))
  (let ((let466 (= let465 let458)))
  (let ((let467 (ff.add let433 let0)))
  (let ((let468 mul_n15))
  (let ((let469 (ff.mul let468 let1)))
  (let ((let470 mul_n42))
  (let ((let471 (ff.add let470 let469 let0)))
  (let ((let472 (ff.mul let471 let467)))
  (let ((let473 (= let472 let408)))
  (let ((let474 mul_n73))
  (let ((let475 (ff.mul let474 let467)))
  (let ((let476 (= let475 let461)))
  (let ((let477 c_n8))
  (let ((let478 (ff.mul let477 let1)))
  (let ((let479 (ff.add let478 let0)))
  (let ((let480 is_zero_n51))
  (let ((let481 (ff.mul let480 let479)))
  (let ((let482 (= let481 let474)))
  (let ((let483 (ff.mul let394 let1)))
  (let ((let484 (ff.add let441 let440 let438 let397 let483 let434 let433 let430 let0)))
  (let ((let485 (ff.mul let484 let477)))
  (let ((let486 (= let485 let389)))
  (let ((let487 (ff.add let406 let413 let398 let394 let429 let407 let1)))
  (let ((let488 (ff.mul let441 let113)))
  (let ((let489 (ff.add let488 let29)))
  (let ((let490 (ff.mul let489 let487)))
  (let ((let491 (= let490 let438)))
  (let ((let492 (ff.add let397 let483 let0)))
  (let ((let493 (ff.mul let406 let113)))
  (let ((let494 (ff.mul let407 let113)))
  (let ((let495 (ff.mul let413 let113)))
  (let ((let496 (ff.add let495 let494 let493 let29)))
  (let ((let497 (ff.mul let496 let492)))
  (let ((let498 (= let497 let429)))
  (let ((let499 (ff.mul let470 let1)))
  (let ((let500 mul_n63))
  (let ((let501 (ff.mul let500 let1)))
  (let ((let502 (ff.add let501 let499 let468)))
  (let ((let503 mul_n68))
  (let ((let504 (ff.mul let503 let502)))
  (let ((let505 (= let504 let387)))
  (let ((let506 mul_n58))
  (let ((let507 (ff.mul let506 let1)))
  (let ((let508 (ff.add let507 let0)))
  (let ((let509 (ff.mul let435 let508)))
  (let ((let510 (= let509 let503)))
  (let ((let511 (ff.mul let439 let1)))
  (let ((let512 (ff.add let511 let431 let427)))
  (let ((let513 is_zero_n66))
  (let ((let514 (ff.mul let513 let512)))
  (let ((let515 (= let514 let435)))
  (let ((let516 mul_n60))
  (let ((let517 mul_n30))
  (let ((let518 mul_n36))
  (let ((let519 (ff.mul let518 let1)))
  (let ((let520 i_n7))
  (let ((let521 (ff.mul let520 let1)))
  (let ((let522 (ff.mul let414 let1)))
  (let ((let523 (ff.add let441 let522 let428 let521 let519 let517 let432 let516 let439 let51)))
  (let ((let524 (ff.mul let513 let523)))
  (let ((let525 (= let524 let28)))
  (let ((let526 (ff.mul let513 let1)))
  (let ((let527 (ff.add let526 let0)))
  (let ((let528 is_zero_inv_n65))
  (let ((let529 (ff.mul let528 let523)))
  (let ((let530 (= let529 let527)))
  (let ((let531 mul_n38))
  (let ((let532 (ff.mul let531 let1)))
  (let ((let533 (ff.add let532 let0)))
  (let ((let534 mul_n22))
  (let ((let535 j_n5))
  (let ((let536 (ff.add let535 let534 let432)))
  (let ((let537 (ff.mul let536 let533)))
  (let ((let538 (= let537 let414)))
  (let ((let539 (ff.add let468 let431 let499 let1)))
  (let ((let540 mul_n62))
  (let ((let541 mul_n56))
  (let ((let542 (ff.add let541 let540)))
  (let ((let543 (ff.mul let542 let539)))
  (let ((let544 (= let543 let500)))
  (let ((let545 (ff.mul let517 let1)))
  (let ((let546 (ff.mul let541 let1)))
  (let ((let547 (ff.mul let441 let1)))
  (let ((let548 (ff.add let511 let547 let431 let546 let518 let545 let427)))
  (let ((let549 (ff.add let398 let437 let394)))
  (let ((let550 (ff.mul let549 let548)))
  (let ((let551 (= let550 let540)))
  (let ((let552 (ff.add let397 let483 let506)))
  (let ((let553 (ff.mul let516 let1)))
  (let ((let554 (ff.add let553 let0)))
  (let ((let555 (ff.mul let554 let552)))
  (let ((let556 (= let555 let437)))
  (let ((let557 mul_n59))
  (let ((let558 (ff.mul let557 let508)))
  (let ((let559 (= let558 let516)))
  (let ((let560 mul_n25))
  (let ((let561 (ff.mul let560 let1)))
  (let ((let562 (ff.add let561 let0)))
  (let ((let563 (ff.mul let393 let1)))
  (let ((let564 (ff.add let563 let0)))
  (let ((let565 (ff.mul let564 let562)))
  (let ((let566 (= let565 let557)))
  (let ((let567 mul_n57))
  (let ((let568 (ff.mul let567 let560)))
  (let ((let569 (= let568 let506)))
  (let ((let570 (ff.mul let535 let1)))
  (let ((let571 (ff.add let570 let0)))
  (let ((let572 (ff.mul let571 let423)))
  (let ((let573 (= let572 let567)))
  (let ((let574 d_n6))
  (let ((let575 (ff.mul let574 let1)))
  (let ((let576 (ff.add let575 let0)))
  (let ((let577 mul_n55))
  (let ((let578 (ff.mul let577 let576)))
  (let ((let579 (= let578 let541)))
  (let ((let580 (ff.mul let480 let1)))
  (let ((let581 (ff.add let580 let0)))
  (let ((let582 is_zero_n54))
  (let ((let583 (ff.mul let582 let581)))
  (let ((let584 (= let583 let577)))
  (let ((let585 l_n12))
  (let ((let586 (ff.mul let585 let1)))
  (let ((let587 mul_n34))
  (let ((let588 (ff.mul let587 let1)))
  (let ((let589 mul_n49))
  (let ((let590 (ff.add let397 let483 let589 let477 let535 let588 let586 let385 let29)))
  (let ((let591 (ff.mul let582 let590)))
  (let ((let592 (= let591 let28)))
  (let ((let593 (ff.mul let582 let1)))
  (let ((let594 (ff.add let593 let0)))
  (let ((let595 is_zero_inv_n53))
  (let ((let596 (ff.mul let595 let590)))
  (let ((let597 (= let596 let594)))
  (let ((let598 (ff.add let394 let456)))
  (let ((let599 mul_n23))
  (let ((let600 (ff.mul let599 let598)))
  (let ((let601 (= let600 let397)))
  (let ((let602 (ff.mul let589 let1)))
  (let ((let603 e_n4))
  (let ((let604 (ff.add let410 let413 let586 let603 let602 let407 let406 let29)))
  (let ((let605 (ff.mul let480 let604)))
  (let ((let606 (= let605 let28)))
  (let ((let607 is_zero_inv_n50))
  (let ((let608 (ff.mul let607 let604)))
  (let ((let609 (= let608 let581)))
  (let ((let610 is_zero_n48))
  (let ((let611 (ff.mul let574 let610)))
  (let ((let612 (= let611 let589)))
  (let ((let613 (ff.mul let450 let1)))
  (let ((let614 mul_n24))
  (let ((let615 (ff.mul let614 let1)))
  (let ((let616 (ff.add let615 let613 let434 let51)))
  (let ((let617 (ff.mul let610 let616)))
  (let ((let618 (= let617 let28)))
  (let ((let619 (ff.mul let610 let1)))
  (let ((let620 (ff.add let619 let0)))
  (let ((let621 is_zero_inv_n47))
  (let ((let622 (ff.mul let621 let616)))
  (let ((let623 (= let622 let620)))
  (let ((let624 (ff.add let603 let440 let433)))
  (let ((let625 (ff.add let441 let517)))
  (let ((let626 (ff.mul let625 let624)))
  (let ((let627 (= let626 let407)))
  (let ((let628 (ff.add let613 let433 let0)))
  (let ((let629 (ff.mul let520 let628)))
  (let ((let630 (= let629 let413)))
  (let ((let631 is_zero_n19))
  (let ((let632 a_n1))
  (let ((let633 (ff.mul let632 let1)))
  (let ((let634 mul_n20))
  (let ((let635 h_n10))
  (let ((let636 is_zero_n29))
  (let ((let637 (ff.mul let636 let1)))
  (let ((let638 (ff.add let451 let637 let635 let521 let634 let633 let394 let631 let412 let427 let51)))
  (let ((let639 (ff.mul let450 let638)))
  (let ((let640 (= let639 let28)))
  (let ((let641 (ff.add let613 let0)))
  (let ((let642 is_zero_inv_n43))
  (let ((let643 (ff.mul let642 let638)))
  (let ((let644 (= let643 let641)))
  (let ((let645 (ff.add let633 let468)))
  (let ((let646 (ff.add let386 let0)))
  (let ((let647 (ff.mul let646 let645)))
  (let ((let648 (= let647 let470)))
  (let ((let649 (ff.mul let427 let29)))
  (let ((let650 mul_n14))
  (let ((let651 (ff.add let547 let511 let451 let456 let518 let632 let545 let650 let396 let570 let431 let587 let585 let649 let29)))
  (let ((let652 (ff.mul let385 let651)))
  (let ((let653 (= let652 let28)))
  (let ((let654 is_zero_inv_n40))
  (let ((let655 (ff.mul let654 let651)))
  (let ((let656 (= let655 let646)))
  (let ((let657 (ff.mul let531 let631)))
  (let ((let658 (= let657 let455)))
  (let ((let659 mul_n37))
  (let ((let660 (ff.mul let659 let636)))
  (let ((let661 (= let660 let531)))
  (let ((let662 (ff.mul let585 let520)))
  (let ((let663 (= let662 let659)))
  (let ((let664 (ff.mul let439 let29)))
  (let ((let665 (ff.mul let431 let113)))
  (let ((let666 (ff.mul let427 let113)))
  (let ((let667 (ff.add let666 let665 let664 let29)))
  (let ((let668 (ff.mul let667 let625)))
  (let ((let669 (= let668 let518)))
  (let ((let670 (ff.mul let431 let29)))
  (let ((let671 (ff.mul let670 let427)))
  (let ((let672 (= let671 let439)))
  (let ((let673 (ff.mul let585 let113)))
  (let ((let674 (ff.add let673 let29)))
  (let ((let675 (ff.mul let674 let535)))
  (let ((let676 (= let675 let587)))
  (let ((let677 (ff.mul let410 let1)))
  (let ((let678 (ff.add let677 let0)))
  (let ((let679 (ff.mul let678 let411)))
  (let ((let680 (= let679 let395)))
  (let ((let681 (ff.mul let534 let1)))
  (let ((let682 (ff.mul let603 let1)))
  (let ((let683 (ff.mul let599 let1)))
  (let ((let684 (ff.add let547 let683 let682 let394 let545 let633 let614 let570 let431 let681 let307)))
  (let ((let685 (ff.mul let410 let684)))
  (let ((let686 (= let685 let28)))
  (let ((let687 is_zero_inv_n31))
  (let ((let688 (ff.mul let687 let684)))
  (let ((let689 (= let688 let678)))
  (let ((let690 (ff.add let547 let574)))
  (let ((let691 (ff.add let637 let0)))
  (let ((let692 (ff.mul let691 let690)))
  (let ((let693 (= let692 let517)))
  (let ((let694 (ff.mul let631 let1)))
  (let ((let695 (ff.mul let614 let113)))
  (let ((let696 (ff.add let695 let451 let406 let694 let427 let51)))
  (let ((let697 (ff.mul let636 let696)))
  (let ((let698 (= let697 let28)))
  (let ((let699 is_zero_inv_n28))
  (let ((let700 (ff.mul let699 let696)))
  (let ((let701 (= let700 let691)))
  (let ((let702 (ff.mul let650 let1)))
  (let ((let703 (ff.add let547 let432 let561 let702 let5)))
  (let ((let704 (ff.mul let406 let703)))
  (let ((let705 (= let704 let28)))
  (let ((let706 is_zero_inv_n26))
  (let ((let707 (ff.mul let706 let703)))
  (let ((let708 (= let707 let467)))
  (let ((let709 (ff.add let521 let0)))
  (let ((let710 (ff.mul let585 let709)))
  (let ((let711 (= let710 let560)))
  (let ((let712 (ff.mul let635 let1)))
  (let ((let713 (ff.add let712 let0)))
  (let ((let714 (ff.mul let477 let713)))
  (let ((let715 (= let714 let614)))
  (let ((let716 (ff.add let634 let394 let631 let1)))
  (let ((let717 (ff.mul let716 let536)))
  (let ((let718 (= let717 let599)))
  (let ((let719 (ff.mul let535 let113)))
  (let ((let720 (ff.add let719 let29)))
  (let ((let721 (ff.mul let720 let431)))
  (let ((let722 (= let721 let534)))
  (let ((let723 (ff.mul let634 let1)))
  (let ((let724 (ff.add let723 let483 let694 let29)))
  (let ((let725 (ff.add let469 let0)))
  (let ((let726 (ff.mul let725 let724)))
  (let ((let727 (= let726 let411)))
  (let ((let728 (ff.add let483 let0)))
  (let ((let729 (ff.mul let631 let113)))
  (let ((let730 (ff.add let729 let29)))
  (let ((let731 (ff.mul let730 let728)))
  (let ((let732 (= let731 let634)))
  (let ((let733 (ff.add let477 let441 let585 let603 let633 let574 let393 let0)))
  (let ((let734 (ff.mul let631 let733)))
  (let ((let735 (= let734 let28)))
  (let ((let736 (ff.add let694 let0)))
  (let ((let737 is_zero_inv_n18))
  (let ((let738 (ff.mul let737 let733)))
  (let ((let739 (= let738 let736)))
  (let ((let740 (ff.add let633 let0)))
  (let ((let741 (ff.mul let520 let740)))
  (let ((let742 (= let741 let394)))
  (let ((let743 (ff.add let428 let469 let0)))
  (let ((let744 (ff.mul let571 let743)))
  (let ((let745 (= let744 let451)))
  (let ((let746 (ff.mul let650 let713)))
  (let ((let747 (= let746 let468)))
  (let ((let748 mul_n13))
  (let ((let749 (ff.mul let748 let535)))
  (let ((let750 (= let749 let650)))
  (let ((let751 (ff.mul let427 let574)))
  (let ((let752 (= let751 let748)))
  (let ((let753 (and let752 let750 let747 let745 let742 let739 let735 let732 let727 let722 let718 let715 let711 let708 let705 let701 let698 let693 let689 let686 let680 let676 let672 let669 let663 let661 let658 let656 let653 let648 let644 let640 let630 let627 let623 let618 let612 let609 let606 let601 let597 let592 let584 let579 let573 let569 let566 let559 let556 let551 let544 let538 let530 let525 let515 let510 let505 let498 let491 let486 let482 let476 let473 let466 let460 let454 let449 let444 let426 let422 let417 let405)))
  (let ((let754 (= let381 let2)))
  (let ((let755 (not let754)))
  (let ((let756 (= let585 let211)))
  (let ((let757 (= let632 let258)))
  (let ((let758 (= let603 let229)))
  (let ((let759 (= let635 let261)))
  (let ((let760 (= let520 let146)))
  (let ((let761 (= let427 let52)))
  (let ((let762 (= let574 let200)))
  (let ((let763 (= let477 let102)))
  (let ((let764 (= let431 let56)))
  (let ((let765 (= let393 let15)))
  (let ((let766 (= let441 let66)))
  (let ((let767 (= let535 let161)))
  (let ((let768 (and let767 let766 let765 let764 let763 let762 let761 let760 let759 let758 let757 let756)))
  (let ((let769 (and let768 let755 let753 let380)))
  let769
))))))))))))))))))))))))))))))))))))))))))))))))))))))))))))))))))))))))))))))))))))))))))))))))))))))))))))))))))))))))))))))))))))))))))))))))))))))))))))))))))))))))))))))))))))))))))))))))))))))))))))))))))))))))))))))))))))))))))))))))))))))))))))))))))))))))))))))))))))))))))))))))))))))))))))))))))))))))))))))))))))))))))))))))))))))))))))))))))))))))))))))))))))))))))))))))))))))))))))))))))))))))))))))))))))))))))))))))))))))))))))))))))))))))))))))))))))))))))))))))))))))))))))))))))))))))))))))))))))))))))))))))))))))))))))))))))))))))))))))))))))))))))))))))))))))))))))))))))))))))))))))))))))))))))))))))))))))))))))))))))))))))))))))))))))))))))))))))))))))))))))))))))))))))))))))))))))))))))))))))))))))))))))))))))))))))))))))))))))))))))))))))))
)
(check-sat)
